95 32 3 65 21 69 10 44 70 86 94 93 83 63 37 1 52 92 24 42 49 43 26 96 50 87 14 23 18 97 56 91 16 19 2 61 98 11 99 59 85 0 72 20 29 5 38 71 9 41 7 6 12 48 28 57 74 77 81 89 31 33 40 75 36 88 46 4 55 51 66 8 17 35 15 34 62 79 58 73 13 80 67 25 84 27 78 45 53 30 76 60 64 68 82 22 90 39 54 47 

